27 27
21
3 3   0 20
3 4   0 23
3 5   24 12
3 6   17 0 
3 7   3 20
3 8   14 19
3 9   0 11
3 10  24 17
3 11  0 0 
3 12  24 0 
3 19  10 0 
3 20  3 0 
3 21  17 6 
4 3   6 18
4 4   6 0 
4 6   6 21
4 7   20 0 
4 8   10 19
4 14  6 4 
4 19  13 0 
4 20  20 7 
